Traveling Salesman Problem/TSP_generados/Aleatorio1620397093_18.tsp
NAME: Aleatorio1620397093_18.tsp
COMMENT: Randomly generated scenario
TYPE: TSP
DIMENSION: 18
EDGE_WEIGHT_TYPE: ATT
NODE_COORD_SECTION
1 38.29 14.26
2 20.41 49.11
3 14.06 0.47
4 21.82 21.28
5 18.85 3.07
6 44.87 43.36
7 18.97 5.0
8 9.99 10.88
9 36.97 6.31
10 7.62 6.49
11 47.93 3.46
12 28.71 47.44
13 7.78 23.06
14 26.98 43.03
15 19.11 29.87
16 4.76 4.91
17 28.1 24.91
18 24.74 5.3
