Traveling Salesman Problem/TSP_generados/Aleatorio1620397093_18.opt.tour
NAME: Aleatorio1620397093_18.opt.tour
COMMENT: Optimal solution for Aleatorio1620397093_18 (193.10192971962613)
TYPE: TOUR
DIMENSION: 18
TOUR_SECTION
1 6 12 2 14 15 17 4 13 8 10 16 3 5 7 18 9 11
-1
EOF
